c Here is a comment.
p cnf 5 8
1 -5 4 0
-1 5 3 4 0
-3 -4 0
1 2 3 4 5 0
1 -2 3 4 5 0
1 -2 -3 4 5 0
1 2 -3 4 5 0
1 2 3 -4 5 0
1 -2 3 -4 5 0
1 -2 3 -4 -5 0
1 2 3 -4 -5 0
-1 2 3 -4 -5 0
-1 2 3 4 -5 0 
-1 2 -3 4 -5 0
-1 2 -3 4 5 0
-1 2 3 -4 5 0
-1 -2 3 -4 5 0
-1 -2 3 -4 -5 0
-1 -2 3 4 -5 0
-1 -2 -3 4 -5 0
-1 -2 -3 4 5 0
